20 4
56 58 92 92 44 81 24 76 87 30 64 40 52 40 73 75 86 25 43 59
37 58 83 71 80 35 94 96 92 37 52 34 81 99 83 48 63 92 82 14
70 97 75 26 16 95 57 73 28 40 83 17 48 94 60 12 31 69 87 20
63 20 49 30 92 16 54 72 67 41 42 71 20 20 21 67 44 46 64 48
